; benchmark generated from python API
(set-info :status unknown)
(declare-fun x_month () Int)
(declare-fun x_day () Int)
(declare-fun x_year () Int)
(assert
 (>= x_month 1))
(assert
 (<= x_month 12))
(assert
 (>= x_day 1))
(assert
 (<= x_day 31))
(assert
 (let (($x316 (<= x_day 28)))
 (let (($x240 (<= x_day 29)))
 (let (($x507 (= (mod x_year 400) 0)))
 (let (($x749 (= (mod x_year 4) 0)))
 (let (($x282 (ite (or (and $x749 (and (distinct (mod x_year 100) 0) true)) $x507) $x240 $x316)))
 (let (($x188 (= x_month 2)))
 (ite $x188 $x282 true))))))))
(assert
 (let (($x494 (<= x_day 30)))
 (let (($x493 (or (= x_month 4) (= x_month 6) (= x_month 9) (= x_month 11))))
 (ite $x493 $x494 true))))
(assert
 (let (($x103 (= x_year 2023)))
 (let (($x225 (and $x103 (or (> x_month 1) (and (= x_month 1) (>= x_day 31))))))
 (or (> x_year 2023) $x225))))
(assert
 (let (($x29 (or (and (= (mod 2000 4) 0) (and (distinct (mod 2000 100) 0) true)) (= (mod 2000 400) 0))))
(let ((?x36 (ite (= 3 2) (ite $x29 31 31) (ite (= 3 1) (ite $x29 0 0) 0))))
(let ((?x46 (ite (= 3 4) (ite $x29 91 90) (ite (= 3 3) (ite $x29 60 59) ?x36))))
(let ((?x58 (ite (= 3 6) (ite $x29 152 151) (ite (= 3 5) (ite $x29 121 120) ?x46))))
(let ((?x70 (ite (= 3 8) (ite $x29 213 212) (ite (= 3 7) (ite $x29 182 181) ?x58))))
(let ((?x82 (ite (= 3 10) (ite $x29 274 273) (ite (= 3 9) (ite $x29 244 243) ?x70))))
(let ((?x94 (ite (= 3 12) (ite $x29 335 334) (ite (= 3 11) (ite $x29 305 304) ?x82))))
(let ((?x16 (- (+ (* 365 (- 2000 1)) (div (- 2000 1) 4)) (div (- 2000 1) 100))))
(let ((?x97 (+ (+ (+ ?x16 (div (- 2000 1) 400)) ?x94) (- 1 1))))
(let ((?x472 (+ (mod (- (+ x_month (+ (* 0 12) 1)) 1) 12) 1)))
(let ((?x658 (ite (or (= ?x472 4) (= ?x472 6) (= ?x472 9) (= ?x472 11)) 30 31)))
(let ((?x219 (+ 0 (div (- (+ x_month (+ (* 0 12) 1)) 1) 12))))
(let ((?x222 (+ x_year ?x219)))
(let (($x318 (or (and (= (mod ?x222 4) 0) (and (distinct (mod ?x222 100) 0) true)) (= (mod ?x222 400) 0))))
(let ((?x470 (ite (= ?x472 2) (ite $x318 29 28) ?x658)))
(let ((?x101 (ite (< x_day 1) 1 (ite (> x_day ?x470) ?x470 x_day))))
(let ((?x739 (ite (< ?x101 1) 1 (ite (> ?x101 ?x470) ?x470 ?x101))))
(let ((?x499 (ite (= 2 ?x472) (ite $x318 31 31) (ite (= 1 ?x472) (ite $x318 0 0) 0))))
(let ((?x620 (ite (= 4 ?x472) (ite $x318 91 90) (ite (= 3 ?x472) (ite $x318 60 59) ?x499))))
(let ((?x231 (ite (= 6 ?x472) (ite $x318 152 151) (ite (= 5 ?x472) (ite $x318 121 120) ?x620))))
(let ((?x238 (ite (= 8 ?x472) (ite $x318 213 212) (ite (= 7 ?x472) (ite $x318 182 181) ?x231))))
(let ((?x850 (ite (= 10 ?x472) (ite $x318 274 273) (ite (= 9 ?x472) (ite $x318 244 243) ?x238))))
(let ((?x439 (ite (= 12 ?x472) (ite $x318 335 334) (ite (= 11 ?x472) (ite $x318 305 304) ?x850))))
(let ((?x730 (- (+ (* 365 (- ?x222 1)) (div (- ?x222 1) 4)) (div (- ?x222 1) 100))))
(let ((?x643 (- (+ (+ (+ ?x730 (div (- ?x222 1) 400)) ?x439) (- ?x739 1)) ?x97)))
(let ((?x734 (+ (+ ?x643 0) ?x97)))
(let ((?x142 (mod ?x734 146097)))
(let ((?x703 (div ?x142 36524)))
(let ((?x706 (ite (<= 4 ?x703) 3 ?x703)))
(let ((?x197 (- ?x142 (* ?x706 36524))))
(let ((?x244 (mod ?x197 1461)))
(let ((?x119 (div ?x244 365)))
(let ((?x442 (ite (<= 4 ?x119) 3 ?x119)))
(let ((?x501 (+ (+ (* (div ?x734 146097) 400) (* ?x706 100)) (* (div ?x197 1461) 4))))
(let ((?x414 (+ (+ ?x501 ?x442) 1)))
(let (($x769 (or (and (= (mod ?x414 4) 0) (and (distinct (mod ?x414 100) 0) true)) (= (mod ?x414 400) 0))))
(let ((?x438 (- ?x244 (* ?x442 365))))
(let ((?x437 (ite $x769 31 31)))
(let (($x179 (>= ?x438 ?x437)))
(let ((?x563 (ite $x179 (+ (- ?x438 ?x437) 1) (+ (- ?x438 (ite $x769 0 0)) 1))))
(let ((?x181 (ite $x769 60 59)))
(let (($x275 (>= ?x438 ?x181)))
(let ((?x436 (ite $x769 91 90)))
(let (($x356 (>= ?x438 ?x436)))
(let ((?x588 (ite $x356 (+ (- ?x438 ?x436) 1) (ite $x275 (+ (- ?x438 ?x181) 1) ?x563))))
(let ((?x720 (ite $x769 121 120)))
(let (($x418 (>= ?x438 ?x720)))
(let ((?x312 (ite $x769 152 151)))
(let (($x740 (>= ?x438 ?x312)))
(let ((?x168 (ite $x740 (+ (- ?x438 ?x312) 1) (ite $x418 (+ (- ?x438 ?x720) 1) ?x588))))
(let ((?x313 (ite $x769 182 181)))
(let (($x424 (>= ?x438 ?x313)))
(let ((?x381 (ite $x769 213 212)))
(let (($x243 (>= ?x438 ?x381)))
(let ((?x2056 (ite $x243 (+ (- ?x438 ?x381) 1) (ite $x424 (+ (- ?x438 ?x313) 1) ?x168))))
(let ((?x141 (ite $x769 244 243)))
(let (($x711 (>= ?x438 ?x141)))
(let ((?x317 (ite $x769 274 273)))
(let (($x636 (>= ?x438 ?x317)))
(let ((?x374 (ite $x636 (+ (- ?x438 ?x317) 1) (ite $x711 (+ (- ?x438 ?x141) 1) ?x2056))))
(let ((?x130 (ite $x769 305 304)))
(let (($x596 (>= ?x438 ?x130)))
(let ((?x177 (ite $x769 335 334)))
(let (($x211 (>= ?x438 ?x177)))
(let ((?x373 (ite $x211 (+ (- ?x438 ?x177) 1) (ite $x596 (+ (- ?x438 ?x130) 1) ?x374))))
(let (($x858 (= 0 0)))
(let ((?x441 (ite $x418 5 (ite $x356 4 (ite $x275 3 (ite $x179 2 1))))))
(let ((?x260 (ite $x711 9 (ite $x243 8 (ite $x424 7 (ite $x740 6 ?x441))))))
(let ((?x325 (ite $x858 ?x472 (ite $x211 12 (ite $x596 11 (ite $x636 10 ?x260))))))
(let (($x534 (or (< ?x325 3) (and (= ?x325 3) (<= (ite $x858 ?x739 ?x373) 1)))))
(or (< (ite $x858 ?x222 ?x414) 2023) (and (= (ite $x858 ?x222 ?x414) 2023) $x534)))))))))))))))))))))))))))))))))))))))))))))))))))))))))))))))))))))))))
(check-sat)
